 Minimize
[ 1.0000000000000000 Z0 * Z1  ]
Subject to
c1: [ 1.0000000000000000 Z0 * Z2  + 1.0000000000000000 Z0 * Z3  + 1.0000000000000000 Z0 * Z4  + 1.0000000000000000 Z0 * Z5  + 1.0000000000000000 Z0 * Z6  + 1.0000000000000000 Z0 * Z7  + 1.0000000000000000 Z0 * Z8  ] = 1.000000
c2: [ 1.0000000000000000 Z0 * Z2 -1.0000000000000000 Z0 * Z9  + 1.0000000000000000 Z0 * Z16  ] = 0.200000
c3: [ 1.0000000000000000 Z0 * Z3 -1.0000000000000000 Z0 * Z10  + 1.0000000000000000 Z0 * Z17  ] = 0.200000
c4: [ 1.0000000000000000 Z0 * Z4 -1.0000000000000000 Z0 * Z11  + 1.0000000000000000 Z0 * Z18  ] = 0.000000
c5: [ 1.0000000000000000 Z0 * Z5 -1.0000000000000000 Z0 * Z12  + 1.0000000000000000 Z0 * Z19  ] = 0.000000
c6: [ 1.0000000000000000 Z0 * Z6 -1.0000000000000000 Z0 * Z13  + 1.0000000000000000 Z0 * Z20  ] = 0.200000
c7: [ 1.0000000000000000 Z0 * Z7 -1.0000000000000000 Z0 * Z14  + 1.0000000000000000 Z0 * Z21  ] = 0.200000
c8: [ 1.0000000000000000 Z0 * Z8 -1.0000000000000000 Z0 * Z15  + 1.0000000000000000 Z0 * Z22  ] = 0.200000
c9: [ 1.0000000000000000 Z0 * Z9  + 1.0000000000000000 Z0 * Z10  + 1.0000000000000000 Z0 * Z11  + 1.0000000000000000 Z0 * Z12  + 1.0000000000000000 Z0 * Z13  + 1.0000000000000000 Z0 * Z14  + 1.0000000000000000 Z0 * Z15  ] <= 0.300000
c10: [ 1.0000000000000000 Z0 * Z9 -0.1100000000000000 Z0 * Z23  ] <= 0.000000
c11: [ 1.0000000000000000 Z0 * Z10 -0.1000000000000000 Z0 * Z24  ] <= 0.000000
c12: [ 1.0000000000000000 Z0 * Z11 -0.0700000000000000 Z0 * Z25  ] <= 0.000000
c13: [ 1.0000000000000000 Z0 * Z12 -0.1100000000000000 Z0 * Z26  ] <= 0.000000
c14: [ 1.0000000000000000 Z0 * Z13 -0.2000000000000000 Z0 * Z27  ] <= 0.000000
c15: [ 1.0000000000000000 Z0 * Z14 -0.1000000000000000 Z0 * Z28  ] <= 0.000000
c16: [ 1.0000000000000000 Z0 * Z15 -0.1000000000000000 Z0 * Z29  ] <= 0.000000
c17: [ 1.0000000000000000 Z0 * Z9 -0.0300000000000000 Z0 * Z23  ] >= 0.000000
c18: [ 1.0000000000000000 Z0 * Z10 -0.0400000000000000 Z0 * Z24  ] >= 0.000000
c19: [ 1.0000000000000000 Z0 * Z11 -0.0400000000000000 Z0 * Z25  ] >= 0.000000
c20: [ 1.0000000000000000 Z0 * Z12 -0.0300000000000000 Z0 * Z26  ] >= 0.000000
c21: [ 1.0000000000000000 Z0 * Z13 -0.0300000000000000 Z0 * Z27  ] >= 0.000000
c22: [ 1.0000000000000000 Z0 * Z14 -0.0300000000000000 Z0 * Z28  ] >= 0.000000
c23: [ 1.0000000000000000 Z0 * Z15 -0.0300000000000000 Z0 * Z29  ] >= 0.000000
c24: [ 1.0000000000000000 Z0 * Z16 -0.2000000000000000 Z0 * Z30  ] <= 0.000000
c25: [ 1.0000000000000000 Z0 * Z17 -0.1500000000000000 Z0 * Z31  ] <= 0.000000
c26: [ 1.0000000000000000 Z0 * Z18  ] <= 0.000000
c27: [ 1.0000000000000000 Z0 * Z19  ] <= 0.000000
c28: [ 1.0000000000000000 Z0 * Z20 -0.1000000000000000 Z0 * Z34  ] <= 0.000000
c29: [ 1.0000000000000000 Z0 * Z21 -0.1500000000000000 Z0 * Z35  ] <= 0.000000
c30: [ 1.0000000000000000 Z0 * Z22 -0.2000000000000000 Z0 * Z36  ] <= 0.000000
c31: [ 1.0000000000000000 Z0 * Z16 -0.0200000000000000 Z0 * Z30  ] >= 0.000000
c32: [ 1.0000000000000000 Z0 * Z17 -0.0200000000000000 Z0 * Z31  ] >= 0.000000
c33: [ 1.0000000000000000 Z0 * Z18 -0.0400000000000000 Z0 * Z32  ] >= 0.000000
c34: [ 1.0000000000000000 Z0 * Z19 -0.0400000000000000 Z0 * Z33  ] >= 0.000000
c35: [ 1.0000000000000000 Z0 * Z20 -0.0400000000000000 Z0 * Z34  ] >= 0.000000
c36: [ 1.0000000000000000 Z0 * Z21 -0.0400000000000000 Z0 * Z35  ] >= 0.000000
c37: [ 1.0000000000000000 Z0 * Z22 -0.0400000000000000 Z0 * Z36  ] >= 0.000000
c38: [ 1.0000000000000000 Z0 * Z23  + 1.0000000000000000 Z0 * Z30  ] <= 1.000000
c39: [ 1.0000000000000000 Z0 * Z24  + 1.0000000000000000 Z0 * Z31  ] <= 1.000000
c40: [ 1.0000000000000000 Z0 * Z25  + 1.0000000000000000 Z0 * Z32  ] <= 1.000000
c41: [ 1.0000000000000000 Z0 * Z26  + 1.0000000000000000 Z0 * Z33  ] <= 1.000000
c42: [ 1.0000000000000000 Z0 * Z27  + 1.0000000000000000 Z0 * Z34  ] <= 1.000000
c43: [ 1.0000000000000000 Z0 * Z28  + 1.0000000000000000 Z0 * Z35  ] <= 1.000000
c44: [ 1.0000000000000000 Z0 * Z29  + 1.0000000000000000 Z0 * Z36  ] <= 1.000000
c45: [ 1.0000000000000000 Z0 * Z1  + 0.0643500000000000 Z0 * Z2  + 0.0548000000000000 Z0 * Z3  + 0.0250500000000000 Z0 * Z4  + 0.0762000000000000 Z0 * Z5  + 0.0381500000000000 Z0 * Z6  + 0.0927000000000000 Z0 * Z7  + 0.0310000000000000 Z0 * Z8 -42.1799999999999997 Z2 * Z2 -40.3599999999999994 Z2 * Z3 -21.7600000000000016 Z2 * Z4 -10.5999999999999996 Z2 * Z5 -24.6400000000000006 Z2 * Z6 -47.6799999999999997 Z2 * Z7 -34.8200000000000003 Z2 * Z8 -70.8900000000000006 Z3 * Z3 -43.1599999999999966 Z3 * Z4 -30.8200000000000003 Z3 * Z5 -46.4799999999999969 Z3 * Z6 -47.6000000000000014 Z3 * Z7 -25.2399999999999984 Z3 * Z8 -25.5100000000000016 Z4 * Z4 -19.1999999999999993 Z4 * Z5 -45.2599999999999980 Z4 * Z6 -26.4400000000000013 Z4 * Z7 -9.4000000000000004 Z4 * Z8 -22.3299999999999983 Z5 * Z5 -20.6400000000000006 Z5 * Z6 -20.9200000000000017 Z5 * Z7 -2.0000000000000000 Z5 * Z8 -30.0100000000000016 Z6 * Z6 -32.7199999999999989 Z6 * Z7 -14.4000000000000004 Z6 * Z8 -42.2299999999999969 Z7 * Z7 -19.8000000000000007 Z7 * Z8 -16.4200000000000017 Z8 * Z8  ] = 0.000000
ac1: Z0 - 1 = 0
Bounds
1 <= Z0 <= 1
-100000000.0000000000000000 <= Z1 <= 100000000.0000000000000000
0.0000000000000000 <= Z2 <= 100000000.0000000000000000
0.0000000000000000 <= Z3 <= 100000000.0000000000000000
0.0000000000000000 <= Z4 <= 100000000.0000000000000000
0.0000000000000000 <= Z5 <= 100000000.0000000000000000
0.0000000000000000 <= Z6 <= 100000000.0000000000000000
0.0000000000000000 <= Z7 <= 100000000.0000000000000000
0.0000000000000000 <= Z8 <= 100000000.0000000000000000
0.0000000000000000 <= Z9 <= 100000000.0000000000000000
0.0000000000000000 <= Z10 <= 100000000.0000000000000000
0.0000000000000000 <= Z11 <= 100000000.0000000000000000
0.0000000000000000 <= Z12 <= 100000000.0000000000000000
0.0000000000000000 <= Z13 <= 100000000.0000000000000000
0.0000000000000000 <= Z14 <= 100000000.0000000000000000
0.0000000000000000 <= Z15 <= 100000000.0000000000000000
0.0000000000000000 <= Z16 <= 100000000.0000000000000000
0.0000000000000000 <= Z17 <= 100000000.0000000000000000
0.0000000000000000 <= Z18 <= 100000000.0000000000000000
0.0000000000000000 <= Z19 <= 100000000.0000000000000000
0.0000000000000000 <= Z20 <= 100000000.0000000000000000
0.0000000000000000 <= Z21 <= 100000000.0000000000000000
0.0000000000000000 <= Z22 <= 100000000.0000000000000000
0.0000000000000000 <= Z23 <= 1.0000000000000000
0.0000000000000000 <= Z24 <= 1.0000000000000000
0.0000000000000000 <= Z25 <= 1.0000000000000000
0.0000000000000000 <= Z26 <= 1.0000000000000000
0.0000000000000000 <= Z27 <= 1.0000000000000000
0.0000000000000000 <= Z28 <= 1.0000000000000000
0.0000000000000000 <= Z29 <= 1.0000000000000000
0.0000000000000000 <= Z30 <= 1.0000000000000000
0.0000000000000000 <= Z31 <= 1.0000000000000000
0.0000000000000000 <= Z32 <= 1.0000000000000000
0.0000000000000000 <= Z33 <= 1.0000000000000000
0.0000000000000000 <= Z34 <= 1.0000000000000000
0.0000000000000000 <= Z35 <= 1.0000000000000000
0.0000000000000000 <= Z36 <= 1.0000000000000000
Binaries
Z23 Z24 Z25 Z26 Z27 Z28 Z29 Z30 Z31 Z32 Z33 Z34 Z35 Z36 
End